#######################



#######################
Set parameter TimeLimit to value 300
Set parameter SoftMemLimit to value 125
Set parameter LogFile to value 1202-TimeLimit300-k16x240-4.log
Set parameter Seed to value 4
Using license file /opt/gurobi/gurobi.lic

Gurobi Optimizer version 12.0.2 build v12.0.2rc0 (linux64 - "Ubuntu 22.04.4 LTS")
Copyright (c) 2025, Gurobi Optimization, LLC

Read MPS format model from file /miplib2010/k16x240.mps.bz2
Reading time = 0.00 seconds
k16x240: 256 rows, 480 columns, 960 nonzeros

Using Gurobi shared library /nfs/shared/static-builds/gurobi1202

CPU model: Intel(R) Xeon(R) E-2388G CPU @ 3.20GHz, instruction set [SSE2|AVX|AVX2|AVX512]
Thread count: 8 physical cores, 16 logical processors, using up to 16 threads

Non-default parameters:
TimeLimit  300
SoftMemLimit  125
Seed  4

Optimize a model with 256 rows, 480 columns and 960 nonzeros
Model fingerprint: 0x4e80885f
Variable types: 240 continuous, 240 integer (240 binary)
Coefficient statistics:
  Matrix range     [1e+00, 1e+03]
  Objective range  [1e+00, 1e+03]
  Bounds range     [1e+00, 1e+03]
  RHS range        [4e+00, 4e+02]
Found heuristic solution: objective 20422.000000
Presolve time: 0.00s
Presolved: 256 rows, 480 columns, 960 nonzeros
Variable types: 240 continuous, 240 integer (240 binary)

Root relaxation: objective 2.769838e+03, 51 iterations, 0.00 seconds (0.00 work units)

    Nodes    |    Current Node    |     Objective Bounds      |     Work
 Expl Unexpl |  Obj  Depth IntInf | Incumbent    BestBd   Gap | It/Node Time

     0     0 2769.83800    0   14 20422.0000 2769.83800  86.4%     -    0s
H    0     0                    11359.000000 2769.83800  75.6%     -    0s
H    0     0                    11195.000000 2769.83800  75.3%     -    0s
H    0     0                    11088.000000 2769.83800  75.0%     -    0s
H    0     0                    11074.000000 8084.69631  27.0%     -    0s
     0     0 8084.69631    0   26 11074.0000 8084.69631  27.0%     -    0s
H    0     0                    10916.000000 8126.71248  25.6%     -    0s
     0     0 8528.16906    0   24 10916.0000 8528.16906  21.9%     -    0s
H    0     0                    10806.000000 8539.49533  21.0%     -    0s
     0     0 8539.49533    0   34 10806.0000 8539.49533  21.0%     -    0s
     0     0 8548.03675    0   29 10806.0000 8548.03675  20.9%     -    0s
     0     0 8739.20556    0   38 10806.0000 8739.20556  19.1%     -    0s
H    0     0                    10804.000000 8745.55182  19.1%     -    0s
H    0     0                    10801.000000 8745.55182  19.0%     -    0s
H    0     0                    10784.000000 8745.55182  18.9%     -    0s
H    0     0                    10717.000000 8745.55182  18.4%     -    0s
     0     0 8805.66840    0   29 10717.0000 8805.66840  17.8%     -    0s
     0     0 8815.00598    0   31 10717.0000 8815.00598  17.7%     -    0s
     0     0 8817.96662    0   29 10717.0000 8817.96662  17.7%     -    0s
     0     0 9004.63224    0   40 10717.0000 9004.63224  16.0%     -    0s
     0     0 9028.17697    0   38 10717.0000 9028.17697  15.8%     -    0s
     0     0 9032.95620    0   37 10717.0000 9032.95620  15.7%     -    0s
     0     0 9054.94859    0   33 10717.0000 9054.94859  15.5%     -    0s
     0     0 9072.98765    0   36 10717.0000 9072.98765  15.3%     -    0s
     0     0 9073.94225    0   36 10717.0000 9073.94225  15.3%     -    0s
     0     0 9091.03151    0   30 10717.0000 9091.03151  15.2%     -    0s
     0     0 9092.79034    0   30 10717.0000 9092.79034  15.2%     -    0s
     0     2 9095.39192    0   30 10717.0000 9095.39192  15.1%     -    0s
H  104   113                    10711.000000 9174.84442  14.3%  34.7    0s
H  111   113                    10678.000000 9174.84442  14.1%  34.7    0s
H  801   682                    10674.000000 9237.82876  13.5%  22.0    0s
 34504 11057 10328.8681   33   17 10674.0000 10082.9768  5.54%  26.1    5s
 72693 12690     cutoff   38      10674.0000 10291.2721  3.59%  26.7   10s

Cutting planes:
  Gomory: 1
  Lift-and-project: 28
  Cover: 63
  Implied bound: 32
  Dual implied bound: 37
  MIR: 164
  Flow cover: 297
  Flow path: 41
  Inf proof: 3
  Zero half: 7
  Network: 57
  Relax-and-lift: 2

Explored 111214 nodes (2832665 simplex iterations) in 14.45 seconds (19.37 work units)
Thread count was 16 (of 16 available processors)

Solution count 10: 10674 10678 10711 ... 11074

Optimal solution found (tolerance 1.00e-04)
Best objective 1.067400000000e+04, best bound 1.067400000000e+04, gap 0.0000%
